100
2000
7
10
60
29
43
63
65
12
0 1
0 2
0 3
0 9
0 11
0 17
0 20
0 23
0 25
0 28
0 29
0 30
0 31
0 32
0 33
0 34
0 35
0 38
0 39
0 40
0 41
0 46
0 49
0 50
0 54
0 55
0 56
0 57
0 60
0 62
0 64
0 66
0 72
0 73
0 75
0 77
0 79
0 85
0 86
0 89
0 93
0 97
0 98
1 2
1 3
1 4
1 5
1 9
1 11
1 12
1 14
1 19
1 20
1 21
1 23
1 25
1 26
1 27
1 28
1 32
1 33
1 35
1 36
1 38
1 39
1 43
1 46
1 47
1 48
1 49
1 50
1 56
1 57
1 61
1 67
1 72
1 80
1 81
1 84
1 85
1 86
1 87
1 92
1 93
1 95
1 97
1 98
2 6
2 10
2 12
2 15
2 18
2 25
2 30
2 31
2 33
2 38
2 40
2 41
2 42
2 44
2 47
2 51
2 52
2 54
2 56
2 57
2 58
2 62
2 65
2 68
2 69
2 70
2 72
2 75
2 77
2 79
2 82
2 85
2 99
3 4
3 5
3 10
3 12
3 14
3 16
3 19
3 20
3 21
3 24
3 27
3 28
3 29
3 30
3 34
3 37
3 39
3 40
3 41
3 43
3 45
3 46
3 49
3 52
3 53
3 55
3 56
3 57
3 59
3 60
3 61
3 63
3 65
3 71
3 73
3 76
3 78
3 79
3 80
3 82
3 84
3 88
3 89
3 95
3 98
3 99
4 9
4 11
4 12
4 15
4 17
4 20
4 21
4 22
4 27
4 28
4 30
4 38
4 39
4 40
4 43
4 46
4 47
4 49
4 50
4 51
4 54
4 57
4 61
4 62
4 65
4 66
4 67
4 68
4 74
4 75
4 77
4 79
4 81
4 83
4 87
4 88
4 89
4 90
4 93
4 96
4 99
5 7
5 15
5 18
5 19
5 23
5 25
5 29
5 30
5 31
5 32
5 33
5 35
5 36
5 37
5 42
5 44
5 47
5 48
5 49
5 52
5 55
5 58
5 61
5 64
5 65
5 68
5 73
5 74
5 76
5 78
5 82
5 83
5 84
5 85
5 86
5 90
5 93
5 96
6 9
6 12
6 13
6 15
6 16
6 18
6 24
6 26
6 27
6 28
6 33
6 35
6 40
6 45
6 46
6 49
6 51
6 52
6 53
6 56
6 58
6 60
6 64
6 65
6 66
6 67
6 69
6 70
6 75
6 82
6 84
6 85
6 86
6 87
6 88
6 90
6 93
6 97
6 99
7 10
7 16
7 18
7 19
7 20
7 22
7 23
7 24
7 27
7 33
7 35
7 36
7 38
7 41
7 43
7 47
7 48
7 58
7 59
7 61
7 62
7 67
7 68
7 69
7 74
7 75
7 78
7 86
7 88
7 90
7 91
7 93
7 94
7 96
7 98
8 10
8 26
8 28
8 29
8 33
8 34
8 37
8 40
8 43
8 48
8 49
8 50
8 54
8 55
8 62
8 63
8 64
8 66
8 72
8 73
8 74
8 75
8 77
8 90
8 91
8 94
8 96
8 98
8 99
9 12
9 13
9 16
9 18
9 21
9 24
9 31
9 33
9 35
9 36
9 40
9 46
9 50
9 51
9 53
9 56
9 57
9 58
9 59
9 62
9 66
9 69
9 70
9 71
9 74
9 75
9 79
9 84
9 86
9 87
9 88
9 92
9 94
10 14
10 15
10 20
10 21
10 24
10 27
10 30
10 31
10 34
10 36
10 38
10 43
10 44
10 47
10 48
10 52
10 54
10 55
10 56
10 57
10 61
10 64
10 65
10 71
10 78
10 79
10 82
10 83
10 84
10 87
10 88
10 91
10 94
10 96
10 97
10 98
10 99
11 14
11 17
11 20
11 22
11 25
11 27
11 28
11 29
11 31
11 34
11 35
11 36
11 38
11 43
11 44
11 47
11 48
11 49
11 50
11 52
11 54
11 61
11 65
11 71
11 76
11 77
11 83
11 89
11 91
11 92
11 94
12 16
12 20
12 22
12 25
12 26
12 27
12 28
12 31
12 34
12 35
12 40
12 41
12 42
12 43
12 53
12 54
12 59
12 62
12 65
12 67
12 68
12 70
12 77
12 78
12 79
12 82
12 92
12 94
12 95
12 96
12 97
12 98
12 99
13 15
13 16
13 17
13 18
13 19
13 20
13 22
13 23
13 24
13 32
13 35
13 36
13 37
13 39
13 42
13 43
13 46
13 49
13 50
13 53
13 56
13 60
13 64
13 67
13 69
13 70
13 71
13 72
13 73
13 77
13 81
13 87
13 88
13 89
13 91
13 93
13 94
13 95
13 97
13 98
14 17
14 18
14 21
14 22
14 23
14 26
14 27
14 29
14 30
14 35
14 38
14 39
14 41
14 43
14 49
14 52
14 53
14 54
14 56
14 57
14 58
14 59
14 60
14 61
14 64
14 71
14 76
14 77
14 82
14 83
14 84
14 85
14 87
14 97
14 98
14 99
15 19
15 20
15 23
15 26
15 31
15 33
15 34
15 36
15 38
15 39
15 41
15 48
15 50
15 52
15 59
15 61
15 62
15 64
15 65
15 66
15 68
15 70
15 75
15 78
15 83
15 85
15 87
15 88
15 93
15 98
16 17
16 20
16 21
16 25
16 26
16 27
16 28
16 29
16 30
16 31
16 32
16 36
16 37
16 38
16 39
16 41
16 45
16 49
16 50
16 51
16 56
16 59
16 61
16 63
16 77
16 78
16 82
16 86
16 87
16 88
16 90
16 92
16 93
16 98
16 99
17 20
17 22
17 23
17 25
17 26
17 27
17 29
17 32
17 34
17 35
17 40
17 41
17 42
17 45
17 48
17 49
17 50
17 54
17 57
17 58
17 59
17 62
17 63
17 64
17 68
17 69
17 71
17 73
17 79
17 81
17 83
17 90
17 95
17 98
17 99
18 21
18 23
18 26
18 28
18 29
18 30
18 32
18 34
18 36
18 40
18 41
18 44
18 45
18 46
18 52
18 53
18 54
18 55
18 56
18 60
18 61
18 62
18 64
18 67
18 68
18 69
18 70
18 80
18 81
18 83
18 84
18 85
18 88
18 91
18 92
18 98
19 21
19 23
19 25
19 26
19 28
19 29
19 30
19 35
19 37
19 38
19 40
19 41
19 44
19 45
19 47
19 48
19 50
19 51
19 54
19 59
19 63
19 64
19 65
19 68
19 69
19 71
19 78
19 80
19 84
19 85
19 86
19 88
19 96
19 97
19 98
20 22
20 30
20 31
20 33
20 39
20 42
20 45
20 47
20 48
20 49
20 52
20 54
20 55
20 56
20 57
20 58
20 62
20 63
20 65
20 66
20 68
20 69
20 71
20 73
20 74
20 77
20 78
20 79
20 81
20 83
20 85
20 86
20 89
20 91
20 92
20 93
20 94
20 96
20 98
21 22
21 24
21 25
21 26
21 28
21 29
21 38
21 39
21 41
21 44
21 49
21 50
21 51
21 56
21 67
21 69
21 71
21 73
21 75
21 76
21 80
21 81
21 82
21 83
21 84
21 91
21 92
21 96
21 97
21 99
22 23
22 26
22 32
22 35
22 36
22 37
22 40
22 42
22 44
22 49
22 52
22 55
22 58
22 64
22 66
22 68
22 70
22 71
22 74
22 75
22 76
22 80
22 82
22 83
22 85
22 89
22 96
23 24
23 26
23 27
23 28
23 32
23 34
23 35
23 36
23 37
23 38
23 42
23 44
23 47
23 51
23 56
23 57
23 63
23 65
23 71
23 74
23 75
23 80
23 81
23 86
23 87
23 88
23 89
23 92
23 93
23 94
23 96
23 98
24 33
24 36
24 37
24 38
24 39
24 40
24 45
24 49
24 50
24 54
24 55
24 56
24 57
24 58
24 60
24 62
24 68
24 69
24 70
24 72
24 73
24 76
24 78
24 79
24 80
24 82
24 88
24 91
24 92
24 96
24 97
24 99
25 26
25 29
25 33
25 35
25 36
25 39
25 40
25 41
25 42
25 45
25 46
25 47
25 49
25 54
25 56
25 57
25 58
25 59
25 60
25 62
25 64
25 66
25 68
25 69
25 70
25 71
25 74
25 79
25 83
25 84
25 91
25 92
25 93
25 95
25 96
25 99
26 28
26 31
26 32
26 37
26 38
26 39
26 40
26 41
26 42
26 44
26 47
26 50
26 57
26 58
26 59
26 60
26 64
26 65
26 67
26 69
26 70
26 71
26 73
26 74
26 76
26 77
26 78
26 81
26 82
26 83
26 84
26 85
26 86
26 90
26 91
26 95
27 28
27 30
27 31
27 32
27 33
27 35
27 42
27 43
27 45
27 49
27 50
27 51
27 52
27 54
27 55
27 61
27 64
27 65
27 67
27 69
27 70
27 73
27 75
27 78
27 80
27 83
27 84
27 86
27 89
27 90
27 91
27 93
27 96
27 97
28 29
28 34
28 36
28 37
28 38
28 40
28 44
28 45
28 46
28 49
28 53
28 54
28 56
28 59
28 61
28 68
28 69
28 70
28 72
28 77
28 81
28 83
28 84
28 87
28 89
28 90
28 91
28 94
28 95
29 31
29 32
29 35
29 38
29 39
29 42
29 46
29 47
29 48
29 53
29 55
29 61
29 63
29 70
29 72
29 74
29 75
29 77
29 78
29 81
29 84
29 85
29 86
29 87
29 90
29 91
29 92
29 95
29 96
30 31
30 33
30 35
30 36
30 38
30 39
30 45
30 46
30 50
30 54
30 59
30 60
30 61
30 62
30 63
30 65
30 66
30 69
30 70
30 71
30 72
30 73
30 77
30 78
30 81
30 83
30 85
30 86
30 88
30 90
30 91
30 95
30 96
30 98
31 32
31 35
31 37
31 39
31 41
31 42
31 45
31 46
31 47
31 49
31 50
31 51
31 54
31 55
31 58
31 59
31 63
31 67
31 68
31 70
31 73
31 74
31 78
31 81
31 82
31 83
31 85
31 86
31 89
31 90
31 95
31 98
32 33
32 34
32 36
32 39
32 42
32 52
32 53
32 55
32 56
32 57
32 58
32 61
32 62
32 63
32 64
32 68
32 73
32 74
32 75
32 77
32 82
32 83
32 85
32 86
32 89
32 90
32 92
32 95
32 96
32 99
33 35
33 37
33 39
33 40
33 42
33 48
33 50
33 55
33 56
33 58
33 62
33 63
33 65
33 69
33 72
33 75
33 76
33 77
33 80
33 84
33 85
33 87
33 88
33 89
33 90
33 91
33 92
33 93
33 96
33 97
34 39
34 43
34 49
34 54
34 55
34 56
34 58
34 61
34 62
34 64
34 66
34 68
34 71
34 72
34 73
34 74
34 76
34 81
34 83
34 84
34 85
34 91
34 93
34 94
34 97
34 98
35 40
35 42
35 47
35 49
35 50
35 52
35 53
35 59
35 62
35 63
35 65
35 66
35 69
35 72
35 74
35 75
35 78
35 81
35 82
35 85
35 89
35 91
35 99
36 40
36 41
36 42
36 44
36 46
36 47
36 48
36 52
36 53
36 54
36 56
36 60
36 61
36 67
36 72
36 73
36 77
36 79
36 81
36 82
36 85
36 86
36 99
37 39
37 40
37 41
37 42
37 44
37 51
37 53
37 56
37 60
37 63
37 69
37 70
37 71
37 75
37 76
37 79
37 80
37 81
37 82
37 94
37 96
37 97
38 41
38 42
38 44
38 45
38 46
38 47
38 50
38 51
38 54
38 55
38 56
38 61
38 63
38 65
38 66
38 72
38 76
38 82
38 84
38 87
38 90
38 92
38 97
39 40
39 41
39 46
39 49
39 56
39 60
39 66
39 67
39 69
39 70
39 71
39 72
39 74
39 77
39 86
39 87
39 92
39 93
40 43
40 44
40 46
40 47
40 49
40 52
40 53
40 57
40 60
40 65
40 66
40 67
40 70
40 72
40 73
40 74
40 79
40 81
40 86
40 87
40 89
40 92
40 94
40 95
40 97
40 98
40 99
41 44
41 49
41 52
41 53
41 55
41 60
41 61
41 64
41 65
41 70
41 77
41 80
41 84
41 85
41 93
41 94
41 98
41 99
42 43
42 45
42 56
42 61
42 62
42 63
42 65
42 66
42 75
42 76
42 79
42 80
42 83
42 87
42 89
42 93
42 95
42 96
42 99
43 47
43 51
43 54
43 55
43 59
43 60
43 61
43 62
43 64
43 68
43 71
43 76
43 77
43 81
43 84
43 87
43 90
43 91
43 94
43 96
44 45
44 46
44 47
44 49
44 50
44 55
44 56
44 58
44 61
44 62
44 66
44 67
44 69
44 70
44 74
44 79
44 80
44 81
44 83
44 85
44 86
44 87
44 88
44 92
44 95
44 96
44 97
44 99
45 47
45 60
45 62
45 64
45 70
45 74
45 76
45 77
45 78
45 83
45 86
45 88
45 93
45 94
45 96
45 98
45 99
46 49
46 51
46 58
46 59
46 62
46 64
46 67
46 71
46 76
46 83
46 85
46 90
46 91
46 93
46 96
46 98
46 99
47 48
47 49
47 51
47 52
47 53
47 57
47 61
47 62
47 64
47 65
47 67
47 76
47 77
47 78
47 81
47 86
47 94
47 95
47 97
47 98
48 49
48 50
48 51
48 53
48 54
48 58
48 60
48 61
48 62
48 69
48 70
48 72
48 74
48 76
48 80
48 82
48 89
48 94
48 96
48 99
49 53
49 54
49 55
49 58
49 59
49 66
49 67
49 74
49 76
49 78
49 87
49 88
49 90
49 95
49 98
49 99
50 51
50 52
50 56
50 59
50 60
50 62
50 63
50 68
50 76
50 80
50 81
50 84
50 86
50 88
50 89
50 91
50 92
50 93
50 96
51 52
51 54
51 55
51 57
51 59
51 64
51 70
51 71
51 72
51 73
51 77
51 80
51 82
51 84
51 88
51 89
51 90
51 92
51 93
51 94
51 96
52 54
52 57
52 58
52 60
52 67
52 69
52 72
52 75
52 79
52 83
52 84
52 93
52 95
52 96
52 97
53 55
53 56
53 58
53 60
53 62
53 63
53 68
53 69
53 72
53 73
53 75
53 76
53 79
53 87
53 89
53 96
53 98
54 56
54 59
54 60
54 65
54 66
54 69
54 71
54 73
54 74
54 77
54 79
54 81
54 82
54 84
54 87
54 88
54 89
54 92
54 95
55 56
55 59
55 64
55 70
55 72
55 73
55 74
55 77
55 82
55 86
55 88
55 94
55 96
55 99
56 58
56 60
56 63
56 64
56 66
56 67
56 71
56 72
56 73
56 75
56 83
56 84
56 86
56 88
56 92
56 93
56 97
56 98
56 99
57 59
57 61
57 64
57 65
57 69
57 71
57 77
57 79
57 81
57 82
57 85
57 88
57 94
57 96
57 97
57 99
58 60
58 61
58 62
58 64
58 66
58 70
58 71
58 72
58 75
58 84
58 86
58 88
58 91
58 92
58 94
58 95
58 98
58 99
59 64
59 67
59 68
59 69
59 71
59 76
59 77
59 82
59 84
59 85
59 90
59 91
59 94
59 97
59 99
60 63
60 65
60 67
60 70
60 77
60 81
60 83
60 85
60 90
60 92
60 94
60 95
60 96
61 68
61 69
61 71
61 74
61 75
61 78
61 82
61 83
61 90
61 92
61 96
61 99
62 64
62 67
62 68
62 71
62 74
62 75
62 79
62 80
62 81
62 83
62 91
62 92
62 95
62 96
62 98
62 99
63 64
63 70
63 76
63 77
63 78
63 81
63 88
63 89
63 91
63 94
63 96
63 99
64 66
64 67
64 68
64 70
64 71
64 73
64 75
64 77
64 78
64 79
64 82
64 86
64 89
64 90
64 95
64 97
65 67
65 69
65 70
65 71
65 74
65 75
65 76
65 77
65 78
65 89
65 90
65 95
65 97
65 99
66 68
66 71
66 72
66 73
66 76
66 77
66 84
66 89
66 90
66 93
66 94
66 96
66 97
66 98
66 99
67 68
67 69
67 70
67 72
67 75
67 77
67 78
67 86
67 87
67 88
67 90
67 93
67 94
67 95
67 97
67 98
67 99
68 71
68 72
68 74
68 76
68 77
68 78
68 80
68 83
68 85
68 87
68 88
68 89
68 90
68 92
68 93
68 94
69 70
69 71
69 75
69 78
69 79
69 80
69 83
69 84
69 86
69 88
69 90
69 98
70 72
70 73
70 74
70 76
70 78
70 79
70 80
70 82
70 83
70 84
70 87
70 91
70 95
71 73
71 75
71 76
71 78
71 81
71 82
71 83
71 84
71 87
71 88
71 89
71 99
72 74
72 75
72 76
72 77
72 81
72 83
72 88
72 91
72 94
72 97
72 98
73 74
73 79
73 80
73 81
73 83
73 84
73 87
73 90
73 92
73 94
73 95
73 98
73 99
74 77
74 80
74 87
74 89
74 91
74 93
75 76
75 82
75 83
75 85
75 87
75 88
75 91
75 94
76 77
76 79
76 80
76 81
76 92
76 95
76 99
77 80
77 82
77 84
77 89
77 92
77 94
77 97
78 81
78 85
78 89
78 91
78 95
78 97
79 84
79 85
79 87
79 93
79 95
79 97
79 98
80 84
80 86
80 90
80 93
80 96
80 98
80 99
81 84
81 85
81 91
81 92
81 93
81 94
81 95
81 96
81 97
82 85
82 86
82 87
82 93
82 95
82 97
82 99
83 86
83 91
83 94
83 95
83 97
83 99
84 89
84 92
84 96
84 97
84 98
85 86
85 88
85 89
85 96
85 97
85 99
86 87
86 89
86 90
86 95
86 96
86 99
87 92
87 93
88 89
88 95
88 97
88 99
89 93
89 95
89 97
89 98
90 92
90 96
90 98
91 92
91 95
91 96
91 98
92 93
92 96
92 97
92 98
93 95
94 95
94 96
94 98
94 99
95 96
95 97
95 99
96 97
96 98
98 99
36 73 88 90 93 81 68 83 95 50 44 58 52 29 35
6 75 47 82 32 70 46 94 4 1 79 27 40 7 72
8 30 16 67 17 22 33 96 9 14 60 62 24 85 80
15 61 39 45 87 77 57 65 28 38 63 26 3 59 20
92 31 97 11 18 69 64 78 21 56 74 66 98 41 53
0 19 43 55 37 91 54 12 2 23 13 48 99 71 25
89 5 10 34 49 86 84 76 42 51
